(set-info :smt-lib-version 2.6)
(set-logic UF)
(set-info :source |Benchmarks from the paper: "Extending Sledgehammer with SMT Solvers" by Jasmin Blanchette, Sascha Bohme, and Lawrence C. Paulson, CADE 2011.  Translated to SMT2 by Andrew Reynolds and Morgan Deters.|)
(set-info :category "industrial")
(set-info :status unknown)
(declare-sort S1 0)
(declare-sort S2 0)
(declare-sort S3 0)
(declare-sort S4 0)
(declare-sort S5 0)
(declare-sort S6 0)
(declare-sort S7 0)
(declare-sort S8 0)
(declare-sort S9 0)
(declare-sort S10 0)
(declare-sort S11 0)
(declare-sort S12 0)
(declare-sort S13 0)
(declare-sort S14 0)
(declare-sort S15 0)
(declare-sort S16 0)
(declare-sort S17 0)
(declare-sort S18 0)
(declare-sort S19 0)
(declare-sort S20 0)
(declare-sort S21 0)
(declare-sort S22 0)
(declare-sort S23 0)
(declare-sort S24 0)
(declare-sort S25 0)
(declare-sort S26 0)
(declare-sort S27 0)
(declare-sort S28 0)
(declare-sort S29 0)
(declare-sort S30 0)
(declare-sort S31 0)
(declare-sort S32 0)
(declare-sort S33 0)
(declare-sort S34 0)
(declare-sort S35 0)
(declare-sort S36 0)
(declare-sort S37 0)
(declare-sort S38 0)
(declare-sort S39 0)
(declare-sort S40 0)
(declare-sort S41 0)
(declare-sort S42 0)
(declare-sort S43 0)
(declare-sort S44 0)
(declare-sort S45 0)
(declare-sort S46 0)
(declare-sort S47 0)
(declare-sort S48 0)
(declare-sort S49 0)
(declare-sort S50 0)
(declare-sort S51 0)
(declare-sort S52 0)
(declare-fun f1 () S1)
(declare-fun f2 () S1)
(declare-fun f3 (S3 S2) S2)
(declare-fun f4 (S4 S5) S3)
(declare-fun f5 () S4)
(declare-fun f6 () S5)
(declare-fun f7 (S6 S2) S3)
(declare-fun f8 () S6)
(declare-fun f9 () S2)
(declare-fun f10 () S5)
(declare-fun f11 () S6)
(declare-fun f12 (S3) S1)
(declare-fun f13 () S5)
(declare-fun f14 (S5) S7)
(declare-fun f15 () S2)
(declare-fun f16 (S8 S5) S5)
(declare-fun f17 (S9 S5) S8)
(declare-fun f18 () S9)
(declare-fun f19 (S12 S11) S11)
(declare-fun f20 (S13 S10) S12)
(declare-fun f21 () S13)
(declare-fun f22 (S14 S10) S10)
(declare-fun f23 (S15 S10) S14)
(declare-fun f24 () S15)
(declare-fun f25 (S16 S11) S12)
(declare-fun f26 () S16)
(declare-fun f27 (S19 S18) S18)
(declare-fun f28 (S20 S17) S19)
(declare-fun f29 () S20)
(declare-fun f30 (S21 S17) S17)
(declare-fun f31 (S22 S17) S21)
(declare-fun f32 () S22)
(declare-fun f33 (S23 S18) S19)
(declare-fun f34 () S23)
(declare-fun f35 (S26 S25) S25)
(declare-fun f36 (S27 S24) S26)
(declare-fun f37 () S27)
(declare-fun f38 (S28 S24) S24)
(declare-fun f39 (S29 S24) S28)
(declare-fun f40 () S29)
(declare-fun f41 (S30 S25) S26)
(declare-fun f42 () S30)
(declare-fun f43 (S31 S25) S8)
(declare-fun f44 () S31)
(declare-fun f45 (S33 S32) S32)
(declare-fun f46 (S34 S18) S33)
(declare-fun f47 () S34)
(declare-fun f48 (S35 S32) S33)
(declare-fun f49 () S35)
(declare-fun f50 (S37 S36) S36)
(declare-fun f51 (S38 S11) S37)
(declare-fun f52 () S38)
(declare-fun f53 (S39 S36) S37)
(declare-fun f54 () S39)
(declare-fun f55 (S32 S32) S1)
(declare-fun f56 (S40 S2) S32)
(declare-fun f57 () S40)
(declare-fun f58 (S41 S2) S5)
(declare-fun f59 (S42 S5) S41)
(declare-fun f60 () S42)
(declare-fun f61 (S43 S32) S18)
(declare-fun f62 (S44 S18) S43)
(declare-fun f63 () S44)
(declare-fun f64 () S35)
(declare-fun f65 (S45 S5) S25)
(declare-fun f66 (S46 S25) S45)
(declare-fun f67 () S46)
(declare-fun f68 () S9)
(declare-fun f69 (S47 S11) S10)
(declare-fun f70 (S48 S10) S47)
(declare-fun f71 () S48)
(declare-fun f72 () S16)
(declare-fun f73 (S49 S36) S11)
(declare-fun f74 (S50 S11) S49)
(declare-fun f75 () S50)
(declare-fun f76 () S39)
(declare-fun f77 () S23)
(declare-fun f78 () S30)
(declare-fun f79 () S5)
(declare-fun f80 () S11)
(declare-fun f81 () S36)
(declare-fun f82 () S17)
(declare-fun f83 () S18)
(declare-fun f84 () S24)
(declare-fun f85 () S25)
(declare-fun f86 (S51 S52) S14)
(declare-fun f87 () S51)
(declare-fun f88 () S52)
(declare-fun f89 () S10)
(declare-fun f90 () S32)
(declare-fun f91 () S15)
(declare-fun f92 (S36 S36) S1)
(declare-fun f93 (S18 S18) S1)
(declare-fun f94 (S10 S10) S1)
(declare-fun f95 (S11 S11) S1)
(assert (not (= f1 f2)))
(assert (not (forall ((?v0 S2)) (= (f3 (f4 f5 f6) (f3 (f7 f8 ?v0) f9)) (f3 (f4 f5 f10) ?v0)))))
(assert (forall ((?v0 S2)) (= (f3 (f4 f5 f6) ?v0) (f3 (f4 f5 f10) (f3 (f7 f11 f9) ?v0)))))
(assert (not (= (f12 (f4 f5 f13)) f1)))
(assert (not (= (f12 (f4 f5 f10)) f1)))
(assert (forall ((?v0 S2)) (= (f3 (f4 f5 f6) ?v0) (f3 (f4 f5 f10) (f3 (f7 f11 f9) ?v0)))))
(assert (= (f12 (f4 f5 f6)) f1))
(assert (= (f14 f6) (f14 f10)))
(assert (not (= (f3 (f4 f5 f10) f9) f15)))
(assert (=> (= (f3 (f4 f5 f10) f9) f15) (exists ((?v0 S2)) (= (f3 (f4 f5 f10) ?v0) f15))))
(assert (exists ((?v0 S5)) (and (= (f14 ?v0) (f14 f10)) (forall ((?v1 S2)) (= (f3 (f4 f5 ?v0) ?v1) (f3 (f4 f5 f10) (f3 (f7 f11 f9) ?v1)))))))
(assert (forall ((?v0 S5) (?v1 S5) (?v2 S2)) (= (f3 (f4 f5 (f16 (f17 f18 ?v0) ?v1)) ?v2) (f3 (f7 f8 (f3 (f4 f5 ?v0) ?v2)) (f3 (f4 f5 ?v1) ?v2)))))
(assert (forall ((?v0 S10) (?v1 S10) (?v2 S11)) (= (f19 (f20 f21 (f22 (f23 f24 ?v0) ?v1)) ?v2) (f19 (f25 f26 (f19 (f20 f21 ?v0) ?v2)) (f19 (f20 f21 ?v1) ?v2)))))
(assert (forall ((?v0 S17) (?v1 S17) (?v2 S18)) (= (f27 (f28 f29 (f30 (f31 f32 ?v0) ?v1)) ?v2) (f27 (f33 f34 (f27 (f28 f29 ?v0) ?v2)) (f27 (f28 f29 ?v1) ?v2)))))
(assert (forall ((?v0 S24) (?v1 S24) (?v2 S25)) (= (f35 (f36 f37 (f38 (f39 f40 ?v0) ?v1)) ?v2) (f35 (f41 f42 (f35 (f36 f37 ?v0) ?v2)) (f35 (f36 f37 ?v1) ?v2)))))
(assert (forall ((?v0 S25) (?v1 S25) (?v2 S5)) (= (f16 (f43 f44 (f35 (f41 f42 ?v0) ?v1)) ?v2) (f16 (f17 f18 (f16 (f43 f44 ?v0) ?v2)) (f16 (f43 f44 ?v1) ?v2)))))
(assert (forall ((?v0 S18) (?v1 S18) (?v2 S32)) (= (f45 (f46 f47 (f27 (f33 f34 ?v0) ?v1)) ?v2) (f45 (f48 f49 (f45 (f46 f47 ?v0) ?v2)) (f45 (f46 f47 ?v1) ?v2)))))
(assert (forall ((?v0 S11) (?v1 S11) (?v2 S36)) (= (f50 (f51 f52 (f19 (f25 f26 ?v0) ?v1)) ?v2) (f50 (f53 f54 (f50 (f51 f52 ?v0) ?v2)) (f50 (f51 f52 ?v1) ?v2)))))
(assert (forall ((?v0 S2)) (let ((?v_0 (f4 f5 f10))) (= (f55 (f56 f57 (f3 ?v_0 f9)) (f56 f57 (f3 ?v_0 ?v0))) f1))))
(assert (=> (forall ((?v0 S5)) (=> (= (f14 ?v0) (f14 f10)) (=> (forall ((?v1 S2)) (= (f3 (f4 f5 ?v0) ?v1) (f3 (f4 f5 f10) (f3 (f7 f11 f9) ?v1)))) false))) false))
(assert (forall ((?v0 S5) (?v1 S5)) (= (= (f4 f5 ?v0) (f4 f5 ?v1)) (= ?v0 ?v1))))
(assert (forall ((?v0 S10) (?v1 S10)) (= (= (f20 f21 ?v0) (f20 f21 ?v1)) (= ?v0 ?v1))))
(assert (forall ((?v0 S18) (?v1 S18)) (= (= (f46 f47 ?v0) (f46 f47 ?v1)) (= ?v0 ?v1))))
(assert (forall ((?v0 S11) (?v1 S11)) (= (= (f51 f52 ?v0) (f51 f52 ?v1)) (= ?v0 ?v1))))
(assert (forall ((?v0 S2) (?v1 S2) (?v2 S2) (?v3 S2)) (=> (= (f3 (f7 f8 ?v0) ?v1) (f3 (f7 f8 ?v2) ?v3)) (= (= ?v0 ?v1) (= ?v2 ?v3)))))
(assert (forall ((?v0 S11) (?v1 S11) (?v2 S11) (?v3 S11)) (=> (= (f19 (f25 f26 ?v0) ?v1) (f19 (f25 f26 ?v2) ?v3)) (= (= ?v0 ?v1) (= ?v2 ?v3)))))
(assert (forall ((?v0 S18) (?v1 S18) (?v2 S18) (?v3 S18)) (=> (= (f27 (f33 f34 ?v0) ?v1) (f27 (f33 f34 ?v2) ?v3)) (= (= ?v0 ?v1) (= ?v2 ?v3)))))
(assert (forall ((?v0 S25) (?v1 S25) (?v2 S25) (?v3 S25)) (=> (= (f35 (f41 f42 ?v0) ?v1) (f35 (f41 f42 ?v2) ?v3)) (= (= ?v0 ?v1) (= ?v2 ?v3)))))
(assert (forall ((?v0 S5) (?v1 S5) (?v2 S5) (?v3 S5)) (=> (= (f16 (f17 f18 ?v0) ?v1) (f16 (f17 f18 ?v2) ?v3)) (= (= ?v0 ?v1) (= ?v2 ?v3)))))
(assert (forall ((?v0 S32) (?v1 S32) (?v2 S32) (?v3 S32)) (=> (= (f45 (f48 f49 ?v0) ?v1) (f45 (f48 f49 ?v2) ?v3)) (= (= ?v0 ?v1) (= ?v2 ?v3)))))
(assert (forall ((?v0 S36) (?v1 S36) (?v2 S36) (?v3 S36)) (=> (= (f50 (f53 f54 ?v0) ?v1) (f50 (f53 f54 ?v2) ?v3)) (= (= ?v0 ?v1) (= ?v2 ?v3)))))
(assert (forall ((?v0 S5) (?v1 S2) (?v2 S2)) (= (f3 (f4 f5 (f58 (f59 f60 ?v0) ?v1)) ?v2) (f3 (f4 f5 ?v0) (f3 (f7 f11 ?v1) ?v2)))))
(assert (forall ((?v0 S18) (?v1 S32) (?v2 S32)) (= (f45 (f46 f47 (f61 (f62 f63 ?v0) ?v1)) ?v2) (f45 (f46 f47 ?v0) (f45 (f48 f64 ?v1) ?v2)))))
(assert (forall ((?v0 S25) (?v1 S5) (?v2 S5)) (= (f16 (f43 f44 (f65 (f66 f67 ?v0) ?v1)) ?v2) (f16 (f43 f44 ?v0) (f16 (f17 f68 ?v1) ?v2)))))
(assert (forall ((?v0 S10) (?v1 S11) (?v2 S11)) (= (f19 (f20 f21 (f69 (f70 f71 ?v0) ?v1)) ?v2) (f19 (f20 f21 ?v0) (f19 (f25 f72 ?v1) ?v2)))))
(assert (forall ((?v0 S11) (?v1 S36) (?v2 S36)) (= (f50 (f51 f52 (f73 (f74 f75 ?v0) ?v1)) ?v2) (f50 (f51 f52 ?v0) (f50 (f53 f76 ?v1) ?v2)))))
(assert (forall ((?v0 S32) (?v1 S32)) (= (f45 (f48 f64 (f45 (f48 f49 ?v0) ?v1)) ?v1) ?v0)))
(assert (forall ((?v0 S2) (?v1 S2)) (= (f3 (f7 f11 (f3 (f7 f8 ?v0) ?v1)) ?v1) ?v0)))
(assert (forall ((?v0 S11) (?v1 S11)) (= (f19 (f25 f72 (f19 (f25 f26 ?v0) ?v1)) ?v1) ?v0)))
(assert (forall ((?v0 S18) (?v1 S18)) (= (f27 (f33 f77 (f27 (f33 f34 ?v0) ?v1)) ?v1) ?v0)))
(assert (forall ((?v0 S25) (?v1 S25)) (= (f35 (f41 f78 (f35 (f41 f42 ?v0) ?v1)) ?v1) ?v0)))
(assert (forall ((?v0 S5) (?v1 S5)) (= (f16 (f17 f68 (f16 (f17 f18 ?v0) ?v1)) ?v1) ?v0)))
(assert (forall ((?v0 S36) (?v1 S36)) (= (f50 (f53 f76 (f50 (f53 f54 ?v0) ?v1)) ?v1) ?v0)))
(assert (forall ((?v0 S32) (?v1 S32)) (= (f45 (f48 f49 (f45 (f48 f64 ?v0) ?v1)) ?v1) ?v0)))
(assert (forall ((?v0 S2) (?v1 S2)) (= (f3 (f7 f8 (f3 (f7 f11 ?v0) ?v1)) ?v1) ?v0)))
(assert (forall ((?v0 S11) (?v1 S11)) (= (f19 (f25 f26 (f19 (f25 f72 ?v0) ?v1)) ?v1) ?v0)))
(assert (forall ((?v0 S18) (?v1 S18)) (= (f27 (f33 f34 (f27 (f33 f77 ?v0) ?v1)) ?v1) ?v0)))
(assert (forall ((?v0 S25) (?v1 S25)) (= (f35 (f41 f42 (f35 (f41 f78 ?v0) ?v1)) ?v1) ?v0)))
(assert (forall ((?v0 S5) (?v1 S5)) (= (f16 (f17 f18 (f16 (f17 f68 ?v0) ?v1)) ?v1) ?v0)))
(assert (forall ((?v0 S36) (?v1 S36)) (= (f50 (f53 f54 (f50 (f53 f76 ?v0) ?v1)) ?v1) ?v0)))
(assert (=> (forall ((?v0 S2)) (=> (forall ((?v1 S2)) (let ((?v_0 (f4 f5 f10))) (= (f55 (f56 f57 (f3 ?v_0 ?v0)) (f56 f57 (f3 ?v_0 ?v1))) f1))) false)) false))
(assert (forall ((?v0 S2) (?v1 S2)) (= (f55 (f56 f57 ?v0) (f45 (f48 f64 (f56 f57 (f3 (f7 f11 ?v0) ?v1))) (f56 f57 ?v1))) f1)))
(assert (forall ((?v0 S2)) (= (f3 (f4 f5 f79) ?v0) f15)))
(assert (forall ((?v0 S36)) (= (f50 (f51 f52 f80) ?v0) f81)))
(assert (forall ((?v0 S18)) (= (f27 (f28 f29 f82) ?v0) f83)))
(assert (forall ((?v0 S25)) (= (f35 (f36 f37 f84) ?v0) f85)))
(assert (forall ((?v0 S10)) (= (f22 (f86 f87 f88) ?v0) f89)))
(assert (forall ((?v0 S11)) (= (f19 (f20 f21 f89) ?v0) f80)))
(assert (forall ((?v0 S5)) (= (f16 (f43 f44 f85) ?v0) f79)))
(assert (forall ((?v0 S32)) (= (f45 (f46 f47 f83) ?v0) f90)))
(assert (forall ((?v0 S32)) (= (f45 (f48 f64 f90) ?v0) ?v0)))
(assert (forall ((?v0 S2)) (= (f3 (f7 f11 f15) ?v0) ?v0)))
(assert (forall ((?v0 S36)) (= (f50 (f53 f76 f81) ?v0) ?v0)))
(assert (forall ((?v0 S18)) (= (f27 (f33 f77 f83) ?v0) ?v0)))
(assert (forall ((?v0 S25)) (= (f35 (f41 f78 f85) ?v0) ?v0)))
(assert (forall ((?v0 S10)) (= (f22 (f23 f91 f89) ?v0) ?v0)))
(assert (forall ((?v0 S11)) (= (f19 (f25 f72 f80) ?v0) ?v0)))
(assert (forall ((?v0 S5)) (= (f16 (f17 f68 f79) ?v0) ?v0)))
(assert (forall ((?v0 S32)) (= (f45 (f48 f64 f90) ?v0) ?v0)))
(assert (forall ((?v0 S2)) (= (f3 (f7 f11 f15) ?v0) ?v0)))
(assert (forall ((?v0 S36)) (= (f50 (f53 f76 f81) ?v0) ?v0)))
(assert (forall ((?v0 S18)) (= (f27 (f33 f77 f83) ?v0) ?v0)))
(assert (forall ((?v0 S25)) (= (f35 (f41 f78 f85) ?v0) ?v0)))
(assert (forall ((?v0 S10)) (= (f22 (f23 f91 f89) ?v0) ?v0)))
(assert (forall ((?v0 S11)) (= (f19 (f25 f72 f80) ?v0) ?v0)))
(assert (forall ((?v0 S5)) (= (f16 (f17 f68 f79) ?v0) ?v0)))
(assert (forall ((?v0 S2)) (= (= f15 ?v0) (= ?v0 f15))))
(assert (forall ((?v0 S36)) (= (= f81 ?v0) (= ?v0 f81))))
(assert (forall ((?v0 S18)) (= (= f83 ?v0) (= ?v0 f83))))
(assert (forall ((?v0 S25)) (= (= f85 ?v0) (= ?v0 f85))))
(assert (forall ((?v0 S10)) (= (= f89 ?v0) (= ?v0 f89))))
(assert (forall ((?v0 S11)) (= (= f80 ?v0) (= ?v0 f80))))
(assert (forall ((?v0 S5)) (= (= f79 ?v0) (= ?v0 f79))))
(assert (forall ((?v0 S32)) (= (= f90 ?v0) (= ?v0 f90))))
(assert (forall ((?v0 S32)) (= (= (f55 f90 (f45 (f48 f64 ?v0) ?v0)) f1) (= (f55 f90 ?v0) f1))))
(assert (forall ((?v0 S36)) (= (= (f92 f81 (f50 (f53 f76 ?v0) ?v0)) f1) (= (f92 f81 ?v0) f1))))
(assert (forall ((?v0 S18)) (= (= (f93 f83 (f27 (f33 f77 ?v0) ?v0)) f1) (= (f93 f83 ?v0) f1))))
(assert (forall ((?v0 S10)) (= (= (f94 f89 (f22 (f23 f91 ?v0) ?v0)) f1) (= (f94 f89 ?v0) f1))))
(assert (forall ((?v0 S11)) (= (= (f95 f80 (f19 (f25 f72 ?v0) ?v0)) f1) (= (f95 f80 ?v0) f1))))
(assert (forall ((?v0 S32)) (= (= f90 (f45 (f48 f64 ?v0) ?v0)) (= ?v0 f90))))
(assert (forall ((?v0 S36)) (= (= f81 (f50 (f53 f76 ?v0) ?v0)) (= ?v0 f81))))
(assert (forall ((?v0 S18)) (= (= f83 (f27 (f33 f77 ?v0) ?v0)) (= ?v0 f83))))
(assert (forall ((?v0 S10)) (= (= f89 (f22 (f23 f91 ?v0) ?v0)) (= ?v0 f89))))
(assert (forall ((?v0 S11)) (= (= f80 (f19 (f25 f72 ?v0) ?v0)) (= ?v0 f80))))
(assert (forall ((?v0 S32)) (= (f45 (f48 f64 ?v0) f90) ?v0)))
(assert (forall ((?v0 S2)) (= (f3 (f7 f11 ?v0) f15) ?v0)))
(assert (forall ((?v0 S36)) (= (f50 (f53 f76 ?v0) f81) ?v0)))
(assert (forall ((?v0 S18)) (= (f27 (f33 f77 ?v0) f83) ?v0)))
(assert (forall ((?v0 S25)) (= (f35 (f41 f78 ?v0) f85) ?v0)))
(assert (forall ((?v0 S10)) (= (f22 (f23 f91 ?v0) f89) ?v0)))
(assert (forall ((?v0 S11)) (= (f19 (f25 f72 ?v0) f80) ?v0)))
(assert (forall ((?v0 S5)) (= (f16 (f17 f68 ?v0) f79) ?v0)))
(assert (forall ((?v0 S32)) (= (f45 (f48 f64 ?v0) f90) ?v0)))
(assert (forall ((?v0 S2)) (= (f3 (f7 f11 ?v0) f15) ?v0)))
(assert (forall ((?v0 S36)) (= (f50 (f53 f76 ?v0) f81) ?v0)))
(assert (forall ((?v0 S18)) (= (f27 (f33 f77 ?v0) f83) ?v0)))
(assert (forall ((?v0 S25)) (= (f35 (f41 f78 ?v0) f85) ?v0)))
(assert (forall ((?v0 S10)) (= (f22 (f23 f91 ?v0) f89) ?v0)))
(assert (forall ((?v0 S11)) (= (f19 (f25 f72 ?v0) f80) ?v0)))
(assert (forall ((?v0 S5)) (= (f16 (f17 f68 ?v0) f79) ?v0)))
(assert (forall ((?v0 S36) (?v1 S36)) (= (= (f92 ?v0 ?v1) f1) (= (f92 (f50 (f53 f54 ?v0) ?v1) f81) f1))))
(assert (forall ((?v0 S32) (?v1 S32)) (= (= (f55 ?v0 ?v1) f1) (= (f55 (f45 (f48 f49 ?v0) ?v1) f90) f1))))
(assert (forall ((?v0 S18) (?v1 S18)) (= (= (f93 ?v0 ?v1) f1) (= (f93 (f27 (f33 f34 ?v0) ?v1) f83) f1))))
(assert (forall ((?v0 S10) (?v1 S10)) (= (= (f94 ?v0 ?v1) f1) (= (f94 (f22 (f23 f24 ?v0) ?v1) f89) f1))))
(assert (forall ((?v0 S11) (?v1 S11)) (= (= (f95 ?v0 ?v1) f1) (= (f95 (f19 (f25 f26 ?v0) ?v1) f80) f1))))
(assert (forall ((?v0 S32)) (= (= (f55 (f45 (f48 f64 ?v0) ?v0) f90) f1) (= (f55 ?v0 f90) f1))))
(assert (forall ((?v0 S36)) (= (= (f92 (f50 (f53 f76 ?v0) ?v0) f81) f1) (= (f92 ?v0 f81) f1))))
(assert (forall ((?v0 S18)) (= (= (f93 (f27 (f33 f77 ?v0) ?v0) f83) f1) (= (f93 ?v0 f83) f1))))
(assert (forall ((?v0 S10)) (= (= (f94 (f22 (f23 f91 ?v0) ?v0) f89) f1) (= (f94 ?v0 f89) f1))))
(assert (forall ((?v0 S11)) (= (= (f95 (f19 (f25 f72 ?v0) ?v0) f80) f1) (= (f95 ?v0 f80) f1))))
(assert (forall ((?v0 S32) (?v1 S32) (?v2 S32)) (let ((?v_0 (f48 f64 ?v0))) (= (f45 (f48 f64 (f45 ?v_0 ?v1)) ?v2) (f45 ?v_0 (f45 (f48 f64 ?v1) ?v2))))))
(assert (forall ((?v0 S2) (?v1 S2) (?v2 S2)) (let ((?v_0 (f7 f11 ?v0))) (= (f3 (f7 f11 (f3 ?v_0 ?v1)) ?v2) (f3 ?v_0 (f3 (f7 f11 ?v1) ?v2))))))
(assert (forall ((?v0 S11) (?v1 S11) (?v2 S11)) (let ((?v_0 (f25 f72 ?v0))) (= (f19 (f25 f72 (f19 ?v_0 ?v1)) ?v2) (f19 ?v_0 (f19 (f25 f72 ?v1) ?v2))))))
(assert (forall ((?v0 S5) (?v1 S5) (?v2 S5)) (let ((?v_0 (f17 f68 ?v0))) (= (f16 (f17 f68 (f16 ?v_0 ?v1)) ?v2) (f16 ?v_0 (f16 (f17 f68 ?v1) ?v2))))))
(assert (forall ((?v0 S36) (?v1 S36) (?v2 S36)) (let ((?v_0 (f53 f76 ?v0))) (= (f50 (f53 f76 (f50 ?v_0 ?v1)) ?v2) (f50 ?v_0 (f50 (f53 f76 ?v1) ?v2))))))
(assert (forall ((?v0 S32) (?v1 S32) (?v2 S32)) (let ((?v_0 (f48 f64 ?v0))) (= (= (f45 ?v_0 ?v1) (f45 ?v_0 ?v2)) (= ?v1 ?v2)))))
(assert (forall ((?v0 S2) (?v1 S2) (?v2 S2)) (let ((?v_0 (f7 f11 ?v0))) (= (= (f3 ?v_0 ?v1) (f3 ?v_0 ?v2)) (= ?v1 ?v2)))))
(assert (forall ((?v0 S11) (?v1 S11) (?v2 S11)) (let ((?v_0 (f25 f72 ?v0))) (= (= (f19 ?v_0 ?v1) (f19 ?v_0 ?v2)) (= ?v1 ?v2)))))
(assert (forall ((?v0 S5) (?v1 S5) (?v2 S5)) (let ((?v_0 (f17 f68 ?v0))) (= (= (f16 ?v_0 ?v1) (f16 ?v_0 ?v2)) (= ?v1 ?v2)))))
(assert (forall ((?v0 S36) (?v1 S36) (?v2 S36)) (let ((?v_0 (f53 f76 ?v0))) (= (= (f50 ?v_0 ?v1) (f50 ?v_0 ?v2)) (= ?v1 ?v2)))))
(check-sat)
(exit)
